SDVRP instances/custom_instances/p02_16_split0.vrp
NAME:p02_16_split
BEST_KNOWN: 0
COMMENT: 0
DIMENSION: 369
CAPACITY: 140
EDGE_WEIGHT_FORMAT: FUNCTION
EDGE_WEIGHT_TYPE: EXACT_2D
NODE_COORD_SECTION
1 0.00000 0.00000
2 44 23
3 44 23
4 44 23
5 44 23
6 44 23
7 44 23
8 44 23
9 44 23
10 24 -13
11 24 -13
12 24 -13
13 24 -13
14 24 -13
15 24 -13
16 24 -13
17 -15 -42
18 -15 -42
19 -15 -42
20 -15 -42
21 -15 -42
22 -15 -42
23 -23 38
24 -23 38
25 -23 38
26 -23 38
27 -23 38
28 -23 38
29 -23 38
30 44 5
31 44 5
32 44 5
33 44 5
34 44 5
35 44 5
36 44 5
37 44 5
38 20 -20
39 20 -20
40 20 -20
41 20 -20
42 -45 -33
43 -45 -33
44 -45 -33
45 -45 -33
46 -45 -33
47 -45 -33
48 12 26
49 12 26
50 12 26
51 12 26
52 12 26
53 12 26
54 12 26
55 12 26
56 18 28
57 18 28
58 18 28
59 18 28
60 18 28
61 -7 -34
62 -7 -34
63 -7 -34
64 -7 -34
65 -7 -34
66 -7 -34
67 -7 -34
68 35 -24
69 35 -24
70 35 -24
71 35 -24
72 35 -24
73 -48 38
74 -48 38
75 -48 38
76 29 -13
77 29 -13
78 29 -13
79 28 -43
80 28 -43
81 28 -43
82 28 -43
83 28 -43
84 28 -43
85 28 -43
86 28 -43
87 28 -43
88 42 -44
89 42 -44
90 18 -33
91 18 -33
92 18 -33
93 18 -33
94 18 -33
95 18 -33
96 18 -33
97 -15 -16
98 -15 -16
99 -15 -16
100 -15 -16
101 -15 -16
102 -15 -16
103 -15 -16
104 17 -4
105 17 -4
106 17 -4
107 17 -4
108 17 -4
109 -16 8
110 -16 8
111 -16 8
112 -16 8
113 -16 8
114 -48 -40
115 -48 -40
116 -48 -40
117 -48 -40
118 -48 -40
119 -14 38
120 -14 38
121 -6 -50
122 -6 -50
123 -6 -50
124 -6 -50
125 -6 -50
126 -6 -50
127 34 34
128 34 34
129 34 34
130 34 34
131 34 34
132 34 34
133 34 34
134 34 34
135 -32 19
136 -32 19
137 -32 19
138 -32 19
139 -32 19
140 -32 19
141 -17 -28
142 -17 -28
143 -17 31
144 -17 31
145 -17 31
146 1 -33
147 1 -33
148 1 -33
149 1 -33
150 1 -33
151 -3 10
152 -3 10
153 -3 10
154 -3 10
155 -3 10
156 -3 10
157 -3 10
158 11 -10
159 11 -10
160 11 -10
161 11 -10
162 11 -10
163 11 -10
164 11 -10
165 11 -10
166 -33 13
167 -33 13
168 -33 13
169 -33 13
170 -24 8
171 -24 8
172 -24 8
173 -24 8
174 -24 8
175 25 49
176 25 49
177 25 49
178 25 49
179 25 49
180 43 -34
181 43 -34
182 -40 49
183 -40 49
184 -40 49
185 -40 49
186 -40 49
187 -40 49
188 -40 49
189 15 -13
190 15 -13
191 15 -13
192 15 -13
193 15 -13
194 15 -13
195 33 -3
196 33 -3
197 33 -3
198 33 -3
199 33 -3
200 33 -3
201 33 -3
202 -28 -35
203 -28 -35
204 -28 -35
205 -28 -35
206 -28 -35
207 47 44
208 47 44
209 47 44
210 47 44
211 -50 -25
212 -50 -25
213 -50 -25
214 -20 -15
215 -20 -15
216 -20 -15
217 -20 -15
218 -20 -15
219 -21 -49
220 -21 -49
221 -21 -49
222 -21 -49
223 -21 -49
224 -21 -49
225 0 18
226 0 18
227 0 18
228 0 18
229 -31 -28
230 -31 -28
231 -31 -28
232 -31 -28
233 -31 -28
234 -16 -32
235 -16 -32
236 -16 -32
237 -16 -32
238 -16 -32
239 -16 -32
240 34 -5
241 34 -5
242 34 -5
243 0 31
244 0 31
245 0 31
246 21 -29
247 21 -29
248 21 -29
249 21 -29
250 21 -29
251 21 -29
252 39 -30
253 39 -30
254 39 -30
255 -26 -28
256 -26 -28
257 -1 -36
258 -1 -36
259 -1 -36
260 -1 -36
261 -1 -36
262 -1 -36
263 -1 -36
264 49 50
265 49 50
266 49 50
267 49 50
268 49 50
269 49 50
270 49 50
271 -7 -5
272 -7 -5
273 -7 -5
274 -7 -5
275 -7 -5
276 -45 -38
277 -45 -38
278 -45 -38
279 -45 -38
280 -45 -38
281 -45 -38
282 8 44
283 8 44
284 8 44
285 8 44
286 -17 -22
287 -17 -22
288 -17 -22
289 -17 -22
290 42 26
291 42 26
292 42 26
293 42 26
294 42 26
295 42 26
296 42 26
297 -26 -20
298 -26 -20
299 -24 -2
300 -24 -2
301 -24 -2
302 -24 -2
303 -24 -2
304 -46 17
305 -46 17
306 -46 17
307 -46 17
308 -38 -35
309 -38 -35
310 4 -13
311 4 -13
312 4 -13
313 4 -13
314 4 -13
315 4 -13
316 4 -13
317 4 -13
318 36 17
319 36 17
320 -49 29
321 -49 29
322 -49 29
323 49 -15
324 49 -15
325 49 -15
326 49 -15
327 49 -15
328 -10 11
329 -10 11
330 -10 11
331 -10 11
332 38 17
333 38 17
334 38 17
335 -34 42
336 -34 42
337 -34 42
338 -34 42
339 -34 42
340 39 -21
341 39 -21
342 39 -21
343 39 -21
344 39 -21
345 39 -21
346 39 -21
347 39 -21
348 -30 49
349 -30 49
350 -30 49
351 -30 49
352 -30 49
353 50 -6
354 50 -6
355 50 -6
356 50 -6
357 48 4
358 48 4
359 48 4
360 29 10
361 29 10
362 29 10
363 29 10
364 29 10
365 -39 10
366 -39 10
367 -39 10
368 -39 10
369 -42 -22
DEMAND_SECTION
1 0
2 14
3 7
4 1
5 1
6 1
7 1
8 1
9 1
10 14
11 7
12 1
13 1
14 1
15 1
16 1
17 28
18 14
19 7
20 1
21 1
22 1
23 28
24 1
25 1
26 1
27 1
28 1
29 1
30 28
31 14
32 1
33 1
34 1
35 1
36 1
37 1
38 28
39 7
40 1
41 1
42 28
43 7
44 1
45 1
46 1
47 1
48 28
49 28
50 7
51 1
52 1
53 1
54 1
55 1
56 28
57 1
58 1
59 1
60 1
61 28
62 1
63 1
64 1
65 1
66 1
67 1
68 28
69 14
70 7
71 1
72 1
73 14
74 7
75 1
76 28
77 14
78 1
79 28
80 28
81 7
82 1
83 1
84 1
85 1
86 1
87 1
88 28
89 7
90 28
91 1
92 1
93 1
94 1
95 1
96 1
97 28
98 28
99 7
100 1
101 1
102 1
103 1
104 28
105 14
106 1
107 1
108 1
109 28
110 14
111 7
112 1
113 1
114 28
115 14
116 7
117 1
118 1
119 28
120 7
121 28
122 28
123 7
124 1
125 1
126 1
127 28
128 14
129 7
130 1
131 1
132 1
133 1
134 1
135 28
136 14
137 1
138 1
139 1
140 1
141 28
142 7
143 14
144 7
145 1
146 28
147 14
148 1
149 1
150 1
151 14
152 7
153 1
154 1
155 1
156 1
157 1
158 28
159 7
160 1
161 1
162 1
163 1
164 1
165 1
166 28
167 14
168 1
169 1
170 28
171 1
172 1
173 1
174 1
175 28
176 14
177 1
178 1
179 1
180 28
181 28
182 28
183 28
184 7
185 1
186 1
187 1
188 1
189 28
190 14
191 1
192 1
193 1
194 1
195 28
196 28
197 1
198 1
199 1
200 1
201 1
202 14
203 1
204 1
205 1
206 1
207 28
208 28
209 7
210 1
211 28
212 28
213 7
214 28
215 14
216 7
217 1
218 1
219 14
220 7
221 1
222 1
223 1
224 1
225 28
226 28
227 7
228 1
229 28
230 28
231 7
232 1
233 1
234 14
235 7
236 1
237 1
238 1
239 1
240 28
241 1
242 1
243 28
244 7
245 1
246 28
247 28
248 1
249 1
250 1
251 1
252 28
253 7
254 1
255 28
256 14
257 28
258 7
259 1
260 1
261 1
262 1
263 1
264 28
265 1
266 1
267 1
268 1
269 1
270 1
271 28
272 1
273 1
274 1
275 1
276 14
277 7
278 1
279 1
280 1
281 1
282 14
283 7
284 1
285 1
286 28
287 1
288 1
289 1
290 28
291 1
292 1
293 1
294 1
295 1
296 1
297 28
298 14
299 28
300 1
301 1
302 1
303 1
304 14
305 1
306 1
307 1
308 28
309 7
310 28
311 7
312 1
313 1
314 1
315 1
316 1
317 1
318 14
319 7
320 28
321 14
322 7
323 28
324 7
325 1
326 1
327 1
328 28
329 14
330 7
331 1
332 28
333 1
334 1
335 28
336 7
337 14
338 7
339 1
340 14
341 7
342 1
343 1
344 1
345 1
346 1
347 1
348 28
349 1
350 1
351 1
352 1
353 14
354 7
355 1
356 1
357 14
358 7
359 1
360 28
361 7
362 1
363 1
364 1
365 28
366 14
367 1
368 1
369 28
DEPOT_SECTION
1
-1
EOF