SDVRP instances/custom_instances/p02_16_split0.sol
368 -10 13 12 11 15 14 9 77 75 76 323 325 322 326 324 353 354 355 352 -33 34 35 32 30 31 36 29 357 358 356 332 333 331 360 359 361 362 363 -43 42 44 113 116 117 115 114 279 280 278 275 277 276 307 308 201 202 205 204 203 286 287 -53 52 48 50 54 47 49 51 174 178 176 175 177 282 281 284 283 227 -58 59 56 57 55 263 266 265 269 267 268 264 209 206 207 208 132 130 133 -68 70 253 252 251 180 179 346 340 339 343 344 341 342 345 -71 67 69 87 88 79 81 85 83 78 84 80 86 82 -90 94 93 91 89 95 92 248 246 250 249 247 245 40 39 37 38 191 190 192 159 163 162 164 160 -97 102 96 98 285 288 141 140 234 237 238 235 236 -99 101 100 255 45 46 41 212 210 211 368 -106 103 104 105 107 241 239 240 196 197 198 200 194 195 199 -109 110 108 327 226 225 224 -111 112 135 136 137 138 139 134 167 165 168 166 365 366 364 367 172 171 173 170 -125 122 123 120 121 124 256 262 148 145 146 147 149 -128 131 129 127 126 294 292 291 290 295 289 293 3 5 4 2 8 1 6 7 317 318 -143 144 24 26 23 348 351 347 350 349 183 186 184 182 181 185 187 338 335 330 329 328 -150 151 152 153 154 142 27 28 25 22 118 119 243 242 244 -155 156 336 334 337 74 73 72 320 319 321 303 305 304 306 -161 158 157 188 189 193 314 309 315 316 312 311 313 310 -169 302 301 299 300 298 213 214 217 216 215 270 272 -233 221 220 219 223 222 218 18 20 16 19 21 17 64 63 62 60 66 61 65 258 257 261 259 260 -254 232 228 231 229 230 296 297 274 271 273 0 





OBJ=
2249.474
BEST_KNOWN=
0.000